-265 -287 0
-22 -287 0
-287 0
25 0
1 0
-23 0
-263 0
-47 0
-3 0
265 0
45 0
21 0
89 0
245 0
5 0
65 0
221 0
-243 0
-67 0
-223 0
-43 0
-283 0
-247 0
-267 0
-7 0
-111 0
-151 0
-12 0
-63 0
-27 0
-227 0
-83 0
-87 0
-107 0
-159 0
-183 0
-203 0
-127 0
-19 0
-199 0
201 0
285 0
109 0
181 0
85 0
41 0
241 0
205 0
225 0
49 0
14 0
18 0
249 0
105 0
29 0
125 0
129 0
145 0
149 0
69 0
77 0
101 0
117 0
121 0
141 0
161 0
165 0
185 0
9 0
153 0
6 0
193 0
8 0
10 0
0
